certificates/rado_a9_c257_N31.cnf
c Rad2 upper bound instance: x1 + 9*x2 - x3 = 257, interval [1,31]
p cnf 31 208
1 5 29 0
-1 -5 -29 0
1 14 30 0
-1 -14 -30 0
1 23 31 0
-1 -23 -31 0
2 6 29 0
-2 -6 -29 0
2 15 30 0
-2 -15 -30 0
2 24 31 0
-2 -24 -31 0
3 7 29 0
-3 -7 -29 0
3 16 30 0
-3 -16 -30 0
3 25 31 0
-3 -25 -31 0
4 8 29 0
-4 -8 -29 0
4 17 30 0
-4 -17 -30 0
4 26 31 0
-4 -26 -31 0
5 9 29 0
-5 -9 -29 0
5 18 30 0
-5 -18 -30 0
5 27 31 0
-5 -27 -31 0
1 6 28 0
-1 -6 -28 0
6 10 29 0
-6 -10 -29 0
6 19 30 0
-6 -19 -30 0
6 28 31 0
-6 -28 -31 0
2 7 28 0
-2 -7 -28 0
7 11 29 0
-7 -11 -29 0
7 20 30 0
-7 -20 -30 0
7 29 31 0
-7 -29 -31 0
3 8 28 0
-3 -8 -28 0
8 12 29 0
-8 -12 -29 0
8 21 30 0
-8 -21 -30 0
8 30 31 0
-8 -30 -31 0
4 9 28 0
-4 -9 -28 0
9 13 29 0
-9 -13 -29 0
9 22 30 0
-9 -22 -30 0
9 31 0
-9 -31 0
5 10 28 0
-5 -10 -28 0
10 14 29 0
-10 -14 -29 0
10 23 30 0
-10 -23 -30 0
6 11 28 0
-6 -11 -28 0
11 15 29 0
-11 -15 -29 0
11 24 30 0
-11 -24 -30 0
7 12 28 0
-7 -12 -28 0
12 16 29 0
-12 -16 -29 0
12 25 30 0
-12 -25 -30 0
8 13 28 0
-8 -13 -28 0
13 17 29 0
-13 -17 -29 0
13 26 30 0
-13 -26 -30 0
9 14 28 0
-9 -14 -28 0
14 18 29 0
-14 -18 -29 0
14 27 30 0
-14 -27 -30 0
1 15 27 0
-1 -15 -27 0
10 15 28 0
-10 -15 -28 0
15 19 29 0
-15 -19 -29 0
15 28 30 0
-15 -28 -30 0
2 16 27 0
-2 -16 -27 0
11 16 28 0
-11 -16 -28 0
16 20 29 0
-16 -20 -29 0
16 29 30 0
-16 -29 -30 0
3 17 27 0
-3 -17 -27 0
12 17 28 0
-12 -17 -28 0
17 21 29 0
-17 -21 -29 0
17 30 0
-17 -30 0
4 18 27 0
-4 -18 -27 0
13 18 28 0
-13 -18 -28 0
18 22 29 0
-18 -22 -29 0
18 30 31 0
-18 -30 -31 0
5 19 27 0
-5 -19 -27 0
14 19 28 0
-14 -19 -28 0
19 23 29 0
-19 -23 -29 0
6 20 27 0
-6 -20 -27 0
15 20 28 0
-15 -20 -28 0
20 24 29 0
-20 -24 -29 0
7 21 27 0
-7 -21 -27 0
16 21 28 0
-16 -21 -28 0
21 25 29 0
-21 -25 -29 0
8 22 27 0
-8 -22 -27 0
17 22 28 0
-17 -22 -28 0
22 26 29 0
-22 -26 -29 0
9 23 27 0
-9 -23 -27 0
18 23 28 0
-18 -23 -28 0
23 27 29 0
-23 -27 -29 0
1 24 26 0
-1 -24 -26 0
10 24 27 0
-10 -24 -27 0
19 24 28 0
-19 -24 -28 0
24 28 29 0
-24 -28 -29 0
2 25 26 0
-2 -25 -26 0
11 25 27 0
-11 -25 -27 0
20 25 28 0
-20 -25 -28 0
25 29 0
-25 -29 0
3 26 0
-3 -26 0
12 26 27 0
-12 -26 -27 0
21 26 28 0
-21 -26 -28 0
26 29 30 0
-26 -29 -30 0
4 26 27 0
-4 -26 -27 0
13 27 0
-13 -27 0
22 27 28 0
-22 -27 -28 0
27 29 31 0
-27 -29 -31 0
5 26 28 0
-5 -26 -28 0
14 27 28 0
-14 -27 -28 0
23 28 0
-23 -28 0
6 26 29 0
-6 -26 -29 0
15 27 29 0
-15 -27 -29 0
7 26 30 0
-7 -26 -30 0
16 27 30 0
-16 -27 -30 0
25 28 30 0
-25 -28 -30 0
8 26 31 0
-8 -26 -31 0
17 27 31 0
-17 -27 -31 0
26 28 31 0
-26 -28 -31 0
