certificates/rado_a9_c257_N31.drat
-29 -30 -31 0
-30 -31 0
d -8 -30 -31 0
-31 0
9 0
29 30 0
30 0
-17 0
-22 0
27 0
28 0
-14 0
-13 0
-16 0
-23 0
-15 0
-25 0
-4 0
29 0
1 0
3 0
26 0
0
